SECTION Graph
Nodes 106
Edges 399
E 1 2 1
E 1 3 1
E 1 4 1
E 1 5 1
E 1 6 1
E 1 7 1
E 1 8 1
E 2 9 1
E 4 9 1
E 6 9 1
E 8 9 1
E 3 10 1
E 4 10 1
E 7 10 1
E 8 10 1
E 2 11 1
E 3 11 1
E 6 11 1
E 7 11 1
E 5 12 1
E 6 12 1
E 7 12 1
E 8 12 1
E 2 13 1
E 4 13 1
E 5 13 1
E 7 13 1
E 3 14 1
E 4 14 1
E 5 14 1
E 6 14 1
E 2 15 1
E 3 15 1
E 5 15 1
E 8 15 1
E 2 16 1
E 4 16 1
E 6 16 1
E 8 16 1
E 3 17 1
E 4 17 1
E 7 17 1
E 8 17 1
E 2 18 1
E 3 18 1
E 6 18 1
E 7 18 1
E 5 19 1
E 6 19 1
E 7 19 1
E 8 19 1
E 2 20 1
E 4 20 1
E 5 20 1
E 7 20 1
E 3 21 1
E 4 21 1
E 5 21 1
E 6 21 1
E 2 22 1
E 3 22 1
E 5 22 1
E 8 22 1
E 2 23 1
E 4 23 1
E 6 23 1
E 8 23 1
E 3 24 1
E 4 24 1
E 7 24 1
E 8 24 1
E 2 25 1
E 3 25 1
E 6 25 1
E 7 25 1
E 5 26 1
E 6 26 1
E 7 26 1
E 8 26 1
E 2 27 1
E 4 27 1
E 5 27 1
E 7 27 1
E 3 28 1
E 4 28 1
E 5 28 1
E 6 28 1
E 2 29 1
E 3 29 1
E 5 29 1
E 8 29 1
E 2 30 1
E 4 30 1
E 6 30 1
E 8 30 1
E 3 31 1
E 4 31 1
E 7 31 1
E 8 31 1
E 2 32 1
E 3 32 1
E 6 32 1
E 7 32 1
E 5 33 1
E 6 33 1
E 7 33 1
E 8 33 1
E 2 34 1
E 4 34 1
E 5 34 1
E 7 34 1
E 3 35 1
E 4 35 1
E 5 35 1
E 6 35 1
E 2 36 1
E 3 36 1
E 5 36 1
E 8 36 1
E 2 37 1
E 4 37 1
E 6 37 1
E 8 37 1
E 3 38 1
E 4 38 1
E 7 38 1
E 8 38 1
E 2 39 1
E 3 39 1
E 6 39 1
E 7 39 1
E 5 40 1
E 6 40 1
E 7 40 1
E 8 40 1
E 2 41 1
E 4 41 1
E 5 41 1
E 7 41 1
E 3 42 1
E 4 42 1
E 5 42 1
E 6 42 1
E 2 43 1
E 3 43 1
E 5 43 1
E 8 43 1
E 2 44 1
E 4 44 1
E 6 44 1
E 8 44 1
E 3 45 1
E 4 45 1
E 7 45 1
E 8 45 1
E 2 46 1
E 3 46 1
E 6 46 1
E 7 46 1
E 5 47 1
E 6 47 1
E 7 47 1
E 8 47 1
E 2 48 1
E 4 48 1
E 5 48 1
E 7 48 1
E 3 49 1
E 4 49 1
E 5 49 1
E 6 49 1
E 2 50 1
E 3 50 1
E 5 50 1
E 8 50 1
E 2 51 1
E 4 51 1
E 6 51 1
E 8 51 1
E 3 52 1
E 4 52 1
E 7 52 1
E 8 52 1
E 2 53 1
E 3 53 1
E 6 53 1
E 7 53 1
E 5 54 1
E 6 54 1
E 7 54 1
E 8 54 1
E 2 55 1
E 4 55 1
E 5 55 1
E 7 55 1
E 3 56 1
E 4 56 1
E 5 56 1
E 6 56 1
E 2 57 1
E 3 57 1
E 5 57 1
E 8 57 1
E 9 58 1
E 23 58 1
E 37 58 1
E 51 58 1
E 10 59 1
E 24 59 1
E 38 59 1
E 52 59 1
E 11 60 1
E 25 60 1
E 39 60 1
E 53 60 1
E 12 61 1
E 26 61 1
E 40 61 1
E 54 61 1
E 13 62 1
E 27 62 1
E 41 62 1
E 55 62 1
E 14 63 1
E 28 63 1
E 42 63 1
E 56 63 1
E 15 64 1
E 29 64 1
E 43 64 1
E 57 64 1
E 16 65 1
E 23 65 1
E 44 65 1
E 51 65 1
E 17 66 1
E 24 66 1
E 45 66 1
E 52 66 1
E 18 67 1
E 25 67 1
E 46 67 1
E 53 67 1
E 19 68 1
E 26 68 1
E 47 68 1
E 54 68 1
E 20 69 1
E 27 69 1
E 48 69 1
E 55 69 1
E 21 70 1
E 28 70 1
E 49 70 1
E 56 70 1
E 22 71 1
E 29 71 1
E 50 71 1
E 57 71 1
E 9 72 1
E 16 72 1
E 37 72 1
E 44 72 1
E 10 73 1
E 17 73 1
E 38 73 1
E 45 73 1
E 11 74 1
E 18 74 1
E 39 74 1
E 46 74 1
E 12 75 1
E 19 75 1
E 40 75 1
E 47 75 1
E 13 76 1
E 20 76 1
E 41 76 1
E 48 76 1
E 14 77 1
E 21 77 1
E 42 77 1
E 49 77 1
E 15 78 1
E 22 78 1
E 43 78 1
E 50 78 1
E 30 79 1
E 37 79 1
E 44 79 1
E 51 79 1
E 31 80 1
E 38 80 1
E 45 80 1
E 52 80 1
E 32 81 1
E 39 81 1
E 46 81 1
E 53 81 1
E 33 82 1
E 40 82 1
E 47 82 1
E 54 82 1
E 34 83 1
E 41 83 1
E 48 83 1
E 55 83 1
E 35 84 1
E 42 84 1
E 49 84 1
E 56 84 1
E 36 85 1
E 43 85 1
E 50 85 1
E 57 85 1
E 9 86 1
E 23 86 1
E 30 86 1
E 44 86 1
E 10 87 1
E 24 87 1
E 31 87 1
E 45 87 1
E 11 88 1
E 25 88 1
E 32 88 1
E 46 88 1
E 12 89 1
E 26 89 1
E 33 89 1
E 47 89 1
E 13 90 1
E 27 90 1
E 34 90 1
E 48 90 1
E 14 91 1
E 28 91 1
E 35 91 1
E 49 91 1
E 15 92 1
E 29 92 1
E 36 92 1
E 50 92 1
E 16 93 1
E 23 93 1
E 30 93 1
E 37 93 1
E 17 94 1
E 24 94 1
E 31 94 1
E 38 94 1
E 18 95 1
E 25 95 1
E 32 95 1
E 39 95 1
E 19 96 1
E 26 96 1
E 33 96 1
E 40 96 1
E 20 97 1
E 27 97 1
E 34 97 1
E 41 97 1
E 21 98 1
E 28 98 1
E 35 98 1
E 42 98 1
E 22 99 1
E 29 99 1
E 36 99 1
E 43 99 1
E 9 100 1
E 16 100 1
E 30 100 1
E 51 100 1
E 10 101 1
E 17 101 1
E 31 101 1
E 52 101 1
E 11 102 1
E 18 102 1
E 32 102 1
E 53 102 1
E 12 103 1
E 19 103 1
E 33 103 1
E 54 103 1
E 13 104 1
E 20 104 1
E 34 104 1
E 55 104 1
E 14 105 1
E 21 105 1
E 35 105 1
E 56 105 1
E 15 106 1
E 22 106 1
E 36 106 1
E 57 106 1
END

SECTION Terminals
Terminals 50
T 1
T 58
T 59
T 60
T 61
T 62
T 63
T 64
T 65
T 66
T 67
T 68
T 69
T 70
T 71
T 72
T 73
T 74
T 75
T 76
T 77
T 78
T 79
T 80
T 81
T 82
T 83
T 84
T 85
T 86
T 87
T 88
T 89
T 90
T 91
T 92
T 93
T 94
T 95
T 96
T 97
T 98
T 99
T 100
T 101
T 102
T 103
T 104
T 105
T 106
END

SECTION Tree Decomposition
s td 30 11 106
b 24 2 4 5 7
b 12 33 19 5 6 54 7 40 8 26 12 47
b 19 17 3 4 52 38 7 8 24 10 45 31
b 9 48 34 2 4 20 5 7 55 41 27 13
b 7 2 3 5 8
b 13 2 50 3 36 5 22 8 57 43 29 15
b 14 2 4 6 8
b 21 18 67 53 39 25 74 11 60 46
b 25 17 66 52 101 87 24 10 45 31
b 18 1 2 3 4 5 6 7 8
b 6 96 33 82 19 54 103 40 89 26 12 47
b 10 5 6 7 8
b 29 16 51 37 23 72 9 58 44 93 30 79
b 27 19 68 54 40 26 75 12 61 47
b 11 49 35 3 4 5 21 6 56 42 28 14
b 8 2 3 6 7
b 17 64 50 22 71 57 43 29 78 15
b 22 16 65 51 100 86 23 9 44 30
b 26 49 98 35 84 21 56 105 42 91 28 14
b 3 50 99 36 85 22 57 106 43 92 29 15
b 1
b 5 3 4 7 8
b 2 32 2 18 3 53 6 39 7 25 11 46
b 28 32 81 18 53 102 39 88 25 11 46 95
b 30 49 21 70 56 42 28 77 14 63
b 16 48 20 69 55 41 27 76 13 62
b 20 3 4 5 6
b 4 16 2 51 4 37 6 23 8 9 44 30
b 23 80 17 52 38 24 73 10 59 45 94 31
b 15 48 97 34 83 20 55 104 41 90 27 13
19 23
9 24
9 15
7 18
7 13
14 18
21 28
18 24
18 20
6 12
6 27
10 18
10 12
11 20
11 26
8 18
22 29
26 30
3 13
3 17
1 2
5 18
5 19
2 28
2 8
4 14
4 29
23 25
15 16
END

EOF
